% demand
num_movements = 35;
loading_factor = [1150, 1500, 950, 1350, 1050, 1050, 900, 1050, 800, 950, 1250, 950, 1100, 1550, 1450, 1400, 1300, 1300, 1300, 1900, 2000, 1200, 800, 1700, 1450, 1550, 1200, 1750, 1550, 1800, 1400, 900, 1450, 1000, 1350];
pickup_time = [0, 1, 1, 1, 1, 1, 1, 1, 1, 1, 1, 4, 4, 4, 4, 4, 4, 5, 6, 8, 8, 9, 9, 9, 10, 11, 11, 11, 11, 11, 11, 12, 13, 13, 13];
delivery_time = [1, 4, 11, 9, 2, 4, 2, 4, 3, 7, 2, 7, 7, 9, 11, 7, 5, 6, 9, 11, 9, 11, 11, 11, 12, 14, 12, 12, 14, 14, 14, 14, 14, 14, 14];

% transporter definition
total_capacity = 11000;
num_decks = 4;
capacity = [3000, 3000, 1000, 4000];

% ways out of decks
num_ways_out = 2;
paths_out = array3d(decks, ways_out, decks, [
% ways out of deck d1
2, 4, 0, 0, 3, 4, 0, 0, 

% ways out of deck d2
4, 0, 0, 0, 0, 0, 0, 0,	

% ways out of deck d3
4, 0, 0, 0, 0, 0, 0, 0,	

% ways out of deck d4
0, 0, 0, 0,	0, 0, 0, 0,	

]);

